experiments/05_solvers_scalability/solutions/scalability/imx8a/IN_20_6.json-ILP-IDLE-MIN.out.log
Using license file /home/benedond/gurobi.lic
Using gurobi.env file
Set parameter Threads to value 1
Academic license - for non-commercial use only
Changed value of parameter TimeLimit to 300.0
   Prev: inf  Min: 0.0  Max: inf  Default: inf
Gurobi Optimizer version 9.0.1 build v9.0.1rc0 (linux64)
Optimize a model with 880 rows, 820 columns and 3258 nonzeros
Model fingerprint: 0x06e5fe51
Variable types: 20 continuous, 800 integer (800 binary)
Coefficient statistics:
  Matrix range     [1e+00, 5e+02]
  Objective range  [5e+01, 5e+02]
  Bounds range     [1e+00, 1e+00]
  RHS range        [1e+00, 1e+03]
Presolve removed 554 rows and 534 columns
Presolve time: 0.17s
Presolved: 326 rows, 286 columns, 2235 nonzeros
Variable types: 16 continuous, 270 integer (270 binary)

Root relaxation: objective 1.028000e+03, 173 iterations, 0.00 seconds

    Nodes    |    Current Node    |     Objective Bounds      |     Work
 Expl Unexpl |  Obj  Depth IntInf | Incumbent    BestBd   Gap | It/Node Time

     0     0 1028.00000    0   35          - 1028.00000      -     -    0s
H    0     0                    2163.0000000 1028.00000  52.5%     -    0s
     0     0 1028.00000    0   49 2163.00000 1028.00000  52.5%     -    0s
     0     0 1028.00000    0   48 2163.00000 1028.00000  52.5%     -    0s
     0     0 1051.43932    0   49 2163.00000 1051.43932  51.4%     -    0s
H    0     0                    1947.0000000 1051.43932  46.0%     -    0s
     0     0 1069.54525    0   54 1947.00000 1069.54525  45.1%     -    0s
     0     0 1076.56686    0   53 1947.00000 1076.56686  44.7%     -    0s
     0     0 1078.71685    0   53 1947.00000 1078.71685  44.6%     -    0s
     0     0 1081.02544    0   52 1947.00000 1081.02544  44.5%     -    0s
     0     0 1081.50672    0   53 1947.00000 1081.50672  44.5%     -    0s
     0     0 1081.56869    0   53 1947.00000 1081.56869  44.4%     -    0s
     0     0 1081.58186    0   53 1947.00000 1081.58186  44.4%     -    0s
     0     0 1118.58014    0   55 1947.00000 1118.58014  42.5%     -    0s
     0     0 1122.35834    0   53 1947.00000 1122.35834  42.4%     -    0s
     0     0 1123.15584    0   56 1947.00000 1123.15584  42.3%     -    0s
     0     0 1123.34960    0   56 1947.00000 1123.34960  42.3%     -    0s
     0     0 1154.23517    0   51 1947.00000 1154.23517  40.7%     -    0s
     0     0 1160.32258    0   53 1947.00000 1160.32258  40.4%     -    0s
     0     0 1161.85410    0   53 1947.00000 1161.85410  40.3%     -    0s
     0     0 1162.26229    0   54 1947.00000 1162.26229  40.3%     -    0s
     0     0 1162.27387    0   54 1947.00000 1162.27387  40.3%     -    0s
     0     0 1173.04888    0   55 1947.00000 1173.04888  39.8%     -    0s
     0     0 1180.49868    0   54 1947.00000 1180.49868  39.4%     -    0s
     0     0 1182.62066    0   56 1947.00000 1182.62066  39.3%     -    0s
     0     0 1182.89143    0   54 1947.00000 1182.89143  39.2%     -    0s
     0     0 1182.98065    0   56 1947.00000 1182.98065  39.2%     -    0s
     0     0 1183.53313    0   56 1947.00000 1183.53313  39.2%     -    0s
     0     0 1183.66078    0   57 1947.00000 1183.66078  39.2%     -    0s
     0     0 1183.66898    0   57 1947.00000 1183.66898  39.2%     -    0s
     0     0 1184.20449    0   55 1947.00000 1184.20449  39.2%     -    0s
     0     0 1184.20449    0   52 1947.00000 1184.20449  39.2%     -    0s
H    0     0                    1804.0000000 1199.42429  33.5%     -    0s
     0     2 1199.42429    0   51 1804.00000 1199.42429  33.5%     -    0s
*  128    63              19    1790.0000000 1301.74135  27.3%  15.0    0s
H  135    57                    1761.0000000 1313.32937  25.4%  15.4    0s

Cutting planes:
  Gomory: 9
  Cover: 23
  Implied bound: 1
  Clique: 21
  MIR: 83
  GUB cover: 9
  RLT: 1
  Relax-and-lift: 19

Explored 720 nodes (10481 simplex iterations) in 0.88 seconds
Thread count was 1 (of 4 available processors)

Solution count 5: 1761 1790 1804 ... 2163

Optimal solution found (tolerance 1.00e-04)
Best objective 1.761000000000e+03, best bound 1.761000000000e+03, gap 0.0000%
